p wcnf 132 66 67 
1 -53 -37 0 
1 -81 -80 0 
1 -132 -98 0 
1 113 85 0 
1 81 7 0 
1 48 63 0 
1 78 -7 0 
1 -69 -38 0 
1 14 98 0 
1 -55 -60 0 
1 -118 -62 0 
1 -125 47 0 
1 -50 21 0 
1 -38 107 0 
1 -50 57 0 
1 -87 -10 0 
1 32 69 0 
1 -129 80 0 
1 32 83 0 
1 -76 6 0 
1 39 50 0 
1 -81 -43 0 
1 99 -125 0 
1 71 -45 0 
1 93 -68 0 
1 -96 -47 0 
1 93 3 0 
1 -1 84 0 
1 126 -111 0 
1 -112 -100 0 
1 -72 98 0 
1 31 -80 0 
1 55 -128 0 
1 39 -73 0 
1 -34 30 0 
1 116 102 0 
1 -66 -116 0 
1 -64 34 0 
1 -19 -3 0 
1 56 -3 0 
1 -11 67 0 
1 48 125 0 
1 -106 13 0 
1 49 -82 0 
1 128 72 0 
1 -84 38 0 
1 102 130 0 
1 -64 4 0 
1 -123 -35 0 
1 -121 -123 0 
1 99 -37 0 
1 -45 -56 0 
1 -16 -105 0 
1 -131 -64 0 
1 -109 130 0 
1 -86 76 0 
1 -44 -25 0 
1 -82 -31 0 
1 -33 113 0 
1 69 -123 0 
1 78 -58 0 
1 54 12 0 
1 -126 -4 0 
1 117 8 0 
1 110 68 0 
1 89 -130 0 
